c ---- [ banner ] ------------------------------------------------------------
c
c Kissat SAT Solver
c 
c Copyright (c) 2021-2024 Armin Biere University of Freiburg
c Copyright (c) 2019-2021 Armin Biere Johannes Kepler University Linz
c 
c Version 4.0.1 43f02cf3e992cb44653b35e5cb26f93281552ae0
c gcc (Ubuntu 13.2.0-23ubuntu4) 13.2.0 -W -Wall -O3 -DNDEBUG
c Thu Sep 12 12:27:46 CEST 2024 Linux abryzen9 6.8.0-41-generic x86_64
c
c ---- [ parsing ] -----------------------------------------------------------
c
c opened and reading DIMACS file:
c
c   /data/artifact/AMulet2.0_artifact/exp4/cnf_resyn3_64/64_64_U2_WT_HCA_Multgen_resyn3.cnf
c
c parsed 'p cnf 28599 128507' header
c closing input after reading 2563226 bytes (2 MB)
c finished parsing after 0.02 seconds
c
c ---- [ options ] -----------------------------------------------------------
c
c --stable=0                       (different from default '1')
c
c ---- [ solving ] -----------------------------------------------------------
c
c  seconds switched rate     size/glue tier1  binary          remaining
c         MB reductions conflicts size  tier2    irredundant
c          level restarts redundant glue  trail          variables
c
c *  0.02 10 0 0 0  0 0   0   0 0.0 0 0 0 0 0% 4683 123822 28596 100%
c (  0.04 12 0 0 0  0 0   0   0 0.0 0 0 0 0 0% 4683 123822 28596 100%
c .  0.05 13 0 0 0  0 0   0   0 0.0 0 0 0 0 0% 4679 123822 28596 100%
c c  0.11 18 0 0 0  0 0   0   0 0.0 0 0 0 0 0% 4694 123821 28595 100%
c d  0.12 18 0 0 0  0 0   0   0 0.0 0 0 0 0 0% 4692 123821 28595 100%
c =  0.18 18 0 0 0  0 0   0   0 0.0 0 0 0 0 0% 5147 123821 28366 99%
c d  0.18 18 0 0 0  0 0   0   0 0.0 0 0 0 0 0% 4689 123821 28366 99%
c f  0.33 17 0 0 0  0 0   0   0 0.0 0 0 0 0 0% 11141 114096 31609 111%
c e  0.58 26 0 0 0  0 0   0   0 0.0 0 0 0 0 0% 4082 124083 22145 77%
c )  0.58 26 0 0 0  0 0   0   0 0.0 0 0 0 0 0% 4082 124083 22145 77%
c {  0.60 26 0 0 0  0 0   0   0 0.0 0 0 2 6 0% 4082 124083 22145 77%
c -  0.83 26 154 0 1 328 41 1001 762 1.6 6 4 2 6 16% 4203 124074 22145 77%
c -  1.34 28 158 0 2 665 50 2002 1599 2.6 11 4 2 8 21% 4210 124074 22145 77%
c d  1.58 28 181 0 2 766 53 2506 2060 3.0 14 5 2 8 23% 4216 124074 22142 77%
c u  1.61 28 181 0 2 766 53 2506 1888 3.0 14 5 2 8 23% 4220 124074 22142 77%
c v  1.63 28 181 0 2 766 53 2506 1501 3.0 14 5 2 8 23% 4221 124074 22142 77%
c w  1.68 28 181 0 2 766 53 2506 1484 3.0 14 5 2 8 23% 4221 124074 22142 77%
c x  1.71 28 181 0 2 766 53 2506 1484 3.0 14 5 2 8 23% 4224 124030 22142 77%
c =  1.82 28 181 0 2 766 53 2506 1484 3.0 14 5 2 8 23% 4364 124030 22072 77%
c d  1.83 28 181 0 2 766 53 2506 1483 3.0 14 5 2 8 23% 4222 124030 22072 77%
c
c  seconds   switched   rate       size/glue tier1    binary          remaining
c         MB  reductions conflicts       size  tier2     irredundant
c           level restarts    redundant    glue   trail          variables
c
c t  1.85 28 181 0 2 766 53 2506 1483 3.0 14 5 2 8 23% 4217 124030 22072 77%
c f  1.89 28 181 0 2 766 53 2506 1483 3.0 14 5 2 8 23% 4228 124010 22078 77%
c u  2.01 24 181 0 2 766 53 2506 1459 3.0 14 5 2 8 23% 4228 124010 22078 77%
c v  2.03 24 181 0 2 766 53 2506 1399 3.0 14 5 2 8 23% 4228 124010 22078 77%
c w  2.08 24 181 0 2 766 53 2506 1392 3.0 14 5 2 8 23% 4228 124010 22078 77%
c =  2.20 24 181 0 2 766 53 2506 1392 3.0 14 5 2 8 23% 4726 124010 21829 76%
c d  2.21 24 181 0 2 766 53 2506 1389 3.0 14 5 2 8 23% 4224 124010 21829 76%
c t  2.22 24 181 0 2 766 53 2506 1389 3.0 14 5 2 8 23% 4222 124010 21829 76%
c f  2.26 24 181 0 2 766 53 2506 1389 3.0 14 5 2 8 23% 4263 123948 21850 76%
c -  2.57 24 321 0 3 908 57 3418 2003 3.6 18 5 2 9 23% 4310 123946 21850 76%
c -  3.33 24 307 0 4 1175 57 5150 3130 4.3 25 6 2 9 26% 4363 123945 21850 76%
c -  3.81 24 315 0 5 1297 50 7151 4379 4.1 24 6 2 9 25% 4433 123944 21850 76%
c d  3.91 24 320 0 5 1326 47 7719 4892 4.0 23 6 2 9 25% 4423 123943 21839 76%
c u  3.95 24 320 0 5 1326 47 7719 4417 4.0 23 6 2 9 25% 4430 123943 21839 76%
c v  3.98 24 320 0 5 1326 47 7719 3764 4.0 23 6 2 9 25% 4430 123943 21839 76%
c w  4.01 24 320 0 5 1326 47 7719 3757 4.0 23 6 2 9 25% 4430 123943 21839 76%
c x  4.07 24 320 0 5 1326 47 7719 3757 4.0 23 6 2 9 25% 4430 123610 21839 76%
c =  4.24 24 320 0 5 1326 47 7719 3757 4.0 23 6 2 9 25% 4690 123610 21709 76%
c d  4.25 24 320 0 5 1326 47 7719 3756 4.0 23 6 2 9 25% 4430 123610 21709 76%
c t  4.27 24 320 0 5 1326 47 7719 3756 4.0 23 6 2 9 25% 4413 123610 21709 76%
c
c  seconds   switched    rate       size/glue tier1    binary          remaining
c         MB  reductions  conflicts       size  tier2     irredundant
c           level  restarts    redundant    glue   trail          variables
c
c f  4.32 24 320 0 5 1326 47 7719 3756 4.0 23 6 2 9 25% 4457 123544 21731 76%
c u  4.37 24 320 0 5 1326 47 7719 3685 4.0 23 6 2 9 25% 4459 123544 21731 76%
c v  4.40 24 320 0 5 1326 47 7719 3598 4.0 23 6 2 9 25% 4460 123544 21731 76%
c w  4.42 24 320 0 5 1326 47 7719 3594 4.0 23 6 2 9 25% 4460 123544 21731 76%
c x  4.49 24 320 0 5 1326 47 7719 3593 4.0 23 6 2 9 25% 4481 121553 21731 76%
c =  4.66 24 320 0 5 1326 47 7719 3593 4.0 23 6 2 9 25% 5105 121553 21419 75%
c d  4.67 24 320 0 5 1326 47 7719 3588 4.0 23 6 2 9 25% 4473 121553 21419 75%
c t  4.69 24 320 0 5 1326 47 7719 3588 4.0 23 6 2 9 25% 4444 121553 21419 75%
c f  4.73 24 320 0 5 1326 47 7719 3588 4.0 23 6 2 9 25% 4462 121525 21429 75%
c -  5.18 24 360 0 6 1438 46 9387 4613 3.9 22 6 2 8 26% 4520 121525 21429 75%
c o  5.32 24 355 0 6 1471 45 10058 5102 3.8 22 6 2 8 26% 4555 121525 21429 75%
c -  5.62 24 366 0 7 1573 43 11836 6072 3.8 21 6 2 8 24% 4630 121516 21429 75%
c s  5.77 24 379 0 7 1621 42 12527 6674 3.7 21 6 2 8 24% 4658 117632 21429 75%
c e  5.91 24 379 0 7 1621 42 12527 6674 3.7 21 6 2 8 24% 4052 118082 20725 72%
c s  5.91 24 379 0 7 1621 42 12527 6674 3.7 21 6 2 8 24% 4056 117846 20725 72%
c e  5.93 24 379 0 7 1621 42 12527 6674 3.7 21 6 2 8 24% 4006 117893 20694 72%
c ^  5.93 24 379 0 7 1621 42 12527 6674 3.7 21 6 2 8 24% 4006 117893 20694 72%
c -  6.35 24 370 0 8 1758 41 14481 7308 3.7 20 6 2 8 24% 4081 117891 20694 72%
c c  6.79 27 361 0 8 1900 41 15810 8405 3.7 21 6 2 8 24% 4168 117596 20645 72%
c d  6.80 27 361 0 8 1900 41 15810 8365 3.7 21 6 2 8 24% 4070 117596 20645 72%
c
c  seconds   switched    rate        size/glue tier1    binary          remaining
c         MB  reductions   conflicts       size  tier2     irredundant
c           level  restarts     redundant    glue   trail          variables
c
c u  6.84 27 361 0 8 1900 41 15810 7228 3.7 21 6 2 8 24% 4070 117596 20645 72%
c v  6.89 27 361 0 8 1900 41 15810 6338 3.7 21 6 2 8 24% 4071 117596 20645 72%
c w  6.94 27 361 0 8 1900 41 15810 6337 3.7 21 6 2 8 24% 4071 117596 20645 72%
c x  6.98 27 361 0 8 1900 41 15810 6337 3.7 21 6 2 8 24% 4092 117439 20645 72%
c =  7.15 27 361 0 8 1900 41 15810 6337 3.7 21 6 2 8 24% 4250 117437 20566 72%
c d  7.16 27 361 0 8 1900 41 15810 6329 3.7 21 6 2 8 24% 4085 117437 20566 72%
c t  7.18 27 361 0 8 1900 41 15810 6329 3.7 21 6 2 8 24% 4042 117437 20566 72%
c f  7.23 27 361 0 8 1900 41 15810 6329 3.7 21 6 2 8 24% 4049 117417 20571 72%
c u  7.28 27 361 0 8 1900 41 15810 6136 3.7 21 6 2 8 24% 4051 117417 20571 72%
c v  7.31 27 361 0 8 1900 41 15810 6009 3.7 21 6 2 8 24% 4051 117417 20571 72%
c w  7.38 27 361 0 8 1900 41 15810 5982 3.7 21 6 2 8 24% 4051 117417 20571 72%
c x  7.42 27 361 0 8 1900 41 15810 5982 3.7 21 6 2 8 24% 4065 117229 20571 72%
c =  7.59 27 361 0 8 1900 41 15810 5982 3.7 21 6 2 8 24% 6607 117225 19300 67%
c d  7.60 27 361 0 8 1900 41 15810 5933 3.7 21 6 2 8 24% 4030 117225 19299 67%
c t  7.62 27 361 0 8 1900 41 15810 5933 3.7 21 6 2 8 24% 3943 117225 19299 67%
c f  7.67 27 361 0 8 1900 41 15810 5933 3.7 21 6 2 8 24% 3946 117193 19312 68%
c -  8.07 27 349 0 9 2027 41 17309 6705 3.7 21 6 2 7 24% 3981 117193 19312 68%
c o  8.72 27 356 0 9 2261 41 20059 8927 3.7 21 6 2 7 24% 4168 117190 19312 68%
c -  8.87 27 354 0 10 2307 41 20309 8469 3.8 22 6 2 7 24% 4171 117190 19312 68%
c -  9.60 27 346 0 11 2563 40 23473 10230 3.8 22 6 2 6 23% 4297 117187 19312 68%
c
c  seconds   switched     rate         size/glue tier1    binary          remaining
c         MB   reductions   conflicts        size  tier2     irredundant
c           level   restarts      redundant    glue   trail          variables
c
c s  9.88 27 345 0 11 2666 39 25043 11555 3.8 22 6 2 6 23% 4354 108854 19312 68%
c e 10.01 27 345 0 11 2666 39 25043 11555 3.8 22 6 2 6 23% 3859 109448 18978 66%
c s 10.01 27 345 0 11 2666 39 25043 11555 3.8 22 6 2 6 23% 3885 108938 18978 66%
c e 10.02 27 345 0 11 2666 39 25043 11555 3.8 22 6 2 6 23% 3871 108958 18968 66%
c ^ 10.02 27 345 0 11 2666 39 25043 11555 3.8 22 6 2 6 23% 3871 108958 18968 66%
c - 10.26 27 341 0 12 2742 38 26791 11172 3.7 21 6 2 6 23% 3947 108957 18968 66%
c c 10.38 28 340 0 12 2755 38 26949 11316 3.7 21 6 2 6 23% 3996 108760 18935 66%
c d 10.38 28 340 0 12 2755 38 26949 11295 3.7 21 6 2 6 23% 3930 108760 18935 66%
c u 10.44 28 340 0 12 2755 38 26949 9800 3.7 21 6 2 6 23% 3938 108760 18935 66%
c v 10.49 28 340 0 12 2755 38 26949 8825 3.7 21 6 2 6 23% 3939 108760 18935 66%
c w 10.50 28 340 0 12 2755 38 26949 8813 3.7 21 6 2 6 23% 3939 108760 18935 66%
c x 10.54 28 340 0 12 2755 38 26949 8813 3.7 21 6 2 6 23% 3939 108721 18935 66%
c = 10.77 28 340 0 12 2755 38 26949 8813 3.7 21 6 2 6 23% 7159 108721 17325 61%
c d 10.78 28 340 0 12 2755 38 26949 8688 3.7 21 6 2 6 23% 3827 108721 17325 61%
c t 10.79 28 340 0 12 2755 38 26949 8688 3.7 21 6 2 6 23% 3747 108721 17325 61%
c f 10.85 28 340 0 12 2755 38 26949 8688 3.7 21 6 2 6 23% 3782 108604 17350 61%
c u 10.97 28 340 0 12 2755 38 26949 8260 3.7 21 6 2 6 23% 3786 108604 17350 61%
c v 11.00 28 340 0 12 2755 38 26949 8082 3.7 21 6 2 6 23% 3787 108604 17350 61%
c w 11.02 28 340 0 12 2755 38 26949 8080 3.7 21 6 2 6 23% 3787 108604 17350 61%
c = 11.24 28 340 0 12 2755 38 26949 8080 3.7 21 6 2 6 23% 6549 108602 15969 56%
c
c  seconds   switched     rate        size/glue tier1    binary          remaining
c         MB   reductions   conflicts       size  tier2     irredundant
c           level   restarts     redundant    glue   trail          variables
c
c d 11.25 28 340 0 12 2755 38 26949 7948 3.7 21 6 2 6 23% 3726 108602 15969 56%
c t 11.26 28 340 0 12 2755 38 26949 7948 3.7 21 6 2 6 23% 3502 108602 15969 56%
c f 11.31 28 340 0 12 2755 38 26949 7948 3.7 21 6 2 6 23% 3542 108389 16019 56%
c - 12.00 28 325 0 13 3034 37 30258 9999 3.7 21 6 2 6 23% 3591 108387 16019 56%
c - 12.73 28 305 0 14 3336 35 33863 12097 3.5 20 6 2 6 23% 3637 108386 16019 56%
c - 13.79 28 292 0 15 3821 35 37606 13998 3.5 20 6 2 6 23% 3700 108385 16019 56%
c o 14.18 28 286 0 15 3978 34 40064 16017 3.5 20 6 2 6 22% 3768 108384 16019 56%
c d 14.53 28 282 0 15 4133 34 41281 16908 3.5 20 6 2 6 22% 3716 108384 15975 56%
c u 14.62 28 282 0 15 4133 34 41281 14521 3.5 20 6 2 6 22% 3750 108384 15975 56%
c v 14.68 28 282 0 15 4133 34 41281 13613 3.5 20 6 2 6 22% 3751 108384 15975 56%
c w 14.73 28 282 0 15 4133 34 41281 13613 3.5 20 6 2 6 22% 3751 108384 15975 56%
c x 14.77 28 282 0 15 4133 34 41281 13613 3.5 20 6 2 6 22% 3751 108366 15975 56%
c = 15.03 28 282 0 15 4133 34 41281 13613 3.5 20 6 2 6 22% 3917 108366 15892 56%
c d 15.04 28 282 0 15 4133 34 41281 13599 3.5 20 6 2 6 22% 3739 108366 15887 56%
c t 15.05 28 282 0 15 4133 34 41281 13599 3.5 20 6 2 6 22% 3674 108366 15887 56%
c f 15.07 28 282 0 15 4133 34 41281 13599 3.5 20 6 2 6 22% 3708 108238 15908 56%
c c 15.16 28 282 0 15 4133 34 41281 13374 3.5 20 6 2 6 22% 3811 107800 15847 55%
c d 15.17 28 282 0 15 4133 34 41281 13374 3.5 20 6 2 6 22% 3689 107800 15847 55%
c u 15.24 28 282 0 15 4133 34 41281 12943 3.5 20 6 2 6 22% 3692 107800 15847 55%
c v 15.31 28 282 0 15 4133 34 41281 12138 3.5 20 6 2 6 22% 3695 107800 15847 55%
c
c  seconds   switched     rate         size/glue tier1    binary          remaining
c         MB   reductions   conflicts        size  tier2     irredundant
c           level   restarts      redundant    glue   trail          variables
c
c w 15.48 29 282 0 15 4133 34 41281 12106 3.5 20 6 2 6 22% 3695 107800 15847 55%
c d 15.76 29 282 0 15 4133 34 41281 12095 3.5 20 6 2 6 22% 3679 107800 15839 55%
c t 15.78 29 282 0 15 4133 34 41281 12095 3.5 20 6 2 6 22% 3667 107800 15839 55%
c f 15.80 29 282 0 15 4133 34 41281 12095 3.5 20 6 2 6 22% 3671 107790 15841 55%
c - 15.82 29 283 0 16 4133 34 41480 11238 3.5 20 6 2 6 22% 3683 107790 15841 55%
c - 17.13 29 277 0 17 4680 34 45482 13478 3.5 21 6 2 5 23% 3751 107789 15841 55%
c - 18.29 29 265 0 18 5220 34 49605 15617 3.5 21 6 2 5 23% 3838 107789 15841 55%
c s 18.61 29 262 0 18 5451 34 52157 17830 3.5 21 6 2 5 23% 3913 88610 15841 55%
c e 18.68 29 262 0 18 5451 34 52157 17830 3.5 21 6 2 5 23% 3453 89383 15450 54%
c 2 18.68 29 262 0 18 5451 34 52157 17830 3.5 21 6 2 5 23% 3443 89383 15450 54%
c s 18.68 29 262 0 18 5451 34 52157 17830 3.5 21 6 2 5 23% 3452 88883 15450 54%
c e 18.69 29 262 0 18 5451 34 52157 17830 3.5 21 6 2 5 23% 3444 88890 15444 54%
c ^ 18.69 29 262 0 18 5451 34 52157 17830 3.5 21 6 2 5 23% 3444 88890 15444 54%
c - 18.91 29 259 0 19 5649 34 53847 14685 3.5 21 6 1 5 23% 3475 88890 15444 54%
c - 19.51 29 253 0 20 6126 33 58208 15271 3.4 21 6 1 5 23% 3544 88890 15444 54%
c c 19.58 29 253 0 20 6152 33 58916 15894 3.4 21 6 1 5 23% 3616 88402 15378 54%
c d 19.59 29 253 0 20 6152 33 58916 15712 3.4 21 6 1 5 23% 3484 88402 15378 54%
c u 19.62 29 253 0 20 6152 33 58916 14545 3.4 21 6 1 5 23% 3508 88402 15378 54%
c v 19.66 29 253 0 20 6152 33 58916 12417 3.4 21 6 1 5 23% 3519 88402 15378 54%
c w 19.69 29 253 0 20 6152 33 58916 12248 3.4 21 6 1 5 23% 3519 88402 15378 54%
c
c  seconds   switched     rate         size/glue tier1    binary         remaining
c         MB   reductions   conflicts        size  tier2     irredundant
c           level   restarts      redundant    glue   trail         variables
c
c d 19.69 29 253 0 20 6152 33 58916 12246 3.4 21 6 1 5 23% 3503 88402 15370 54%
c t 19.70 29 253 0 20 6152 33 58916 12246 3.4 21 6 1 5 23% 3469 88402 15370 54%
c f 19.72 29 253 0 20 6152 33 58916 12246 3.4 21 6 1 5 23% 3463 88375 15376 54%
c c 19.76 29 253 0 20 6152 33 58916 12221 3.4 21 6 1 5 23% 3481 88305 15366 54%
c d 19.76 29 253 0 20 6152 33 58916 12221 3.4 21 6 1 5 23% 3461 88305 15366 54%
c u 19.79 29 253 0 20 6152 33 58916 12002 3.4 21 6 1 5 23% 3462 88305 15366 54%
c v 19.82 29 253 0 20 6152 33 58916 11577 3.4 21 6 1 5 23% 3464 88305 15366 54%
c w 19.84 29 253 0 20 6152 33 58916 11523 3.4 21 6 1 5 23% 3464 88305 15366 54%
c x 19.92 29 253 0 20 6152 33 58916 11517 3.4 21 6 1 5 23% 3520 87566 15366 54%
c = 20.15 29 253 0 20 6152 33 58916 11517 3.4 21 6 1 5 23% 3540 87566 15356 54%
c d 20.16 29 253 0 20 6152 33 58916 11514 3.4 21 6 1 5 23% 3517 87566 15356 54%
c t 20.17 29 253 0 20 6152 33 58916 11514 3.4 21 6 1 5 23% 3474 87566 15356 54%
c - 20.61 29 251 0 21 6526 32 62680 12640 3.4 21 6 1 5 23% 3533 87565 15356 54%
c - 21.21 29 243 0 22 7014 32 67262 14528 3.4 21 6 1 5 23% 3597 87564 15356 54%
c o 21.53 29 239 0 22 7274 31 70097 17037 3.3 21 6 1 5 23% 3642 87564 15356 54%
c - 21.70 29 238 0 23 7397 31 71952 16065 3.3 21 6 1 5 23% 3693 87564 15356 54%
c - 22.46 29 233 0 24 7941 31 76747 17291 3.3 22 7 1 5 23% 3761 87563 15356 54%
c d 22.82 29 230 0 24 8186 30 79973 19995 3.3 22 7 1 5 23% 3644 87560 15280 53%
c u 22.86 29 230 0 24 8186 30 79973 18316 3.3 22 7 1 5 23% 3682 87560 15280 53%
c v 22.92 29 230 0 24 8186 30 79973 15606 3.3 22 7 1 5 23% 3696 87560 15280 53%
c
c  seconds   switched     rate         size/glue tier1    binary         remaining
c         MB   reductions   conflicts        size  tier2     irredundant
c           level   restarts      redundant    glue   trail         variables
c
c w 23.05 29 230 0 24 8186 30 79973 15429 3.3 22 7 1 5 23% 3696 87560 15280 53%
c = 23.20 29 230 0 24 8186 30 79973 15429 3.3 22 7 1 5 23% 4174 87560 15041 53%
c d 23.21 29 230 0 24 8186 30 79973 15095 3.3 22 7 1 5 23% 3632 87560 15038 53%
c t 23.21 29 230 0 24 8186 30 79973 15095 3.3 22 7 1 5 23% 3563 87560 15038 53%
c f 23.23 29 230 0 24 8186 30 79973 15095 3.3 22 7 1 5 23% 3564 87554 15039 53%
c c 23.27 29 230 0 24 8186 30 79973 15071 3.3 22 7 1 5 23% 3593 87389 15020 53%
c d 23.27 29 230 0 24 8186 30 79973 15071 3.3 22 7 1 5 23% 3555 87389 15020 53%
c u 23.30 29 230 0 24 8186 30 79973 14692 3.3 22 7 1 5 23% 3562 87389 15020 53%
c v 23.34 29 230 0 24 8186 30 79973 14146 3.3 22 7 1 5 23% 3563 87389 15020 53%
c w 23.43 29 230 0 24 8186 30 79973 13910 3.3 22 7 1 5 23% 3563 87389 15020 53%
c x 23.46 29 230 0 24 8186 30 79973 13908 3.3 22 7 1 5 23% 3563 87365 15020 53%
c = 23.80 29 230 0 24 8186 30 79973 13908 3.3 22 7 1 5 23% 3979 87363 14812 52%
c d 23.80 29 230 0 24 8186 30 79973 13834 3.3 22 7 1 5 23% 3519 87363 14812 52%
c t 23.81 29 230 0 24 8186 30 79973 13834 3.3 22 7 1 5 23% 3390 87363 14812 52%
c f 23.82 29 230 0 24 8186 30 79973 13834 3.3 22 7 1 5 23% 3389 87331 14818 52%
c - 24.11 29 229 0 25 8409 30 81647 13359 3.3 22 7 1 5 23% 3406 87331 14818 52%
c - 24.70 29 221 0 26 8825 30 86648 15656 3.3 22 7 1 5 23% 3450 87331 14818 52%
c - 25.36 29 218 0 27 9339 29 91747 17790 3.3 22 7 1 5 23% 3494 87328 14818 52%
c s 25.92 29 215 0 27 9793 29 95817 21407 3.3 22 7 1 5 23% 3568 84629 14818 52%
c e 26.00 29 215 0 27 9793 29 95817 21407 3.3 22 7 1 5 23% 2423 87286 14250 50%
c
c  seconds   switched     rate         size/glue tier1    binary         remaining
c         MB   reductions   conflicts        size  tier2     irredundant
c           level   restarts      redundant    glue   trail         variables
c
c 2 26.00 29 215 0 27 9793 29 95817 21407 3.3 22 7 1 5 23% 2420 87286 14250 50%
c s 26.01 29 215 0 27 9793 29 95817 21407 3.3 22 7 1 5 23% 2442 86747 14250 50%
c e 26.01 29 215 0 27 9793 29 95817 21407 3.3 22 7 1 5 23% 2411 86795 14236 50%
c ^ 26.02 29 215 0 27 9793 29 95817 21407 3.3 22 7 1 5 23% 2411 86795 14236 50%
c - 26.21 30 214 0 28 9936 29 96943 17401 3.3 22 7 1 5 23% 2420 86795 14236 50%
c - 26.78 30 209 0 29 10318 29 102234 18874 3.3 22 7 1 5 23% 2476 86794 14236 50%
c c 26.98 30 209 0 29 10438 28 104581 20877 3.2 22 7 1 5 23% 2572 86494 14194 50%
c d 26.98 30 209 0 29 10438 28 104581 20784 3.2 22 7 1 5 23% 2488 86494 14194 50%
c u 27.02 30 209 0 29 10438 28 104581 19123 3.2 22 7 1 5 23% 2517 86494 14194 50%
c v 27.08 30 209 0 29 10438 28 104581 16565 3.2 22 7 1 5 23% 2533 86494 14194 50%
c w 27.17 30 209 0 29 10438 28 104581 16221 3.2 22 7 1 5 23% 2535 86494 14194 50%
c = 27.55 30 209 0 29 10438 28 104581 16221 3.2 22 7 1 5 23% 2941 86482 13991 49%
c d 27.56 30 209 0 29 10438 28 104581 15983 3.2 22 7 1 5 23% 2502 86482 13991 49%
c t 27.57 30 209 0 29 10438 28 104581 15983 3.2 22 7 1 5 23% 2385 86482 13991 49%
c f 27.60 30 209 0 29 10438 28 104581 15983 3.2 22 7 1 5 23% 2421 86258 14010 49%
c u 27.67 30 209 0 29 10438 28 104581 15538 3.2 22 7 1 5 23% 2426 86258 14010 49%
c v 27.71 30 209 0 29 10438 28 104581 14958 3.2 22 7 1 5 23% 2431 86258 14010 49%
c w 27.78 30 209 0 29 10438 28 104581 14812 3.2 22 7 1 5 23% 2431 86258 14010 49%
c = 28.10 30 209 0 29 10438 28 104581 14812 3.2 22 7 1 5 23% 2627 86258 13912 49%
c d 28.11 30 209 0 29 10438 28 104581 14770 3.2 22 7 1 5 23% 2422 86258 13912 49%
c
c  seconds   switched      rate          size/glue tier1    binary         remaining
c         MB   reductions    conflicts         size  tier2     irredundant
c           level   restarts        redundant    glue   trail         variables
c
c t 28.11 30 209 0 29 10438 28 104581 14770 3.2 22 7 1 5 23% 2397 86258 13912 49%
c f 28.12 30 209 0 29 10438 28 104581 14770 3.2 22 7 1 5 23% 2412 86166 13920 49%
c - 28.56 30 209 0 30 10721 28 107619 15247 3.2 22 7 1 5 23% 2432 86166 13920 49%
c o 28.89 30 207 0 30 10926 28 110098 17507 3.2 23 7 1 5 24% 2452 86166 13920 49%
c - 29.28 30 205 0 31 11172 28 113099 17769 3.2 23 7 1 5 24% 2462 86166 13920 49%
c - 29.99 30 202 0 32 11648 27 118667 19920 3.3 23 7 1 4 24% 2495 86165 13920 49%
c - 30.66 30 195 0 33 12063 27 124323 21397 3.2 23 7 1 4 24% 2550 86163 13920 49%
c - 31.45 30 193 0 34 12582 26 130067 22854 3.3 24 7 1 4 25% 2572 86163 13920 49%
c d 31.59 30 188 0 34 12656 26 132822 25318 3.2 23 7 1 4 24% 2579 86163 13917 49%
c u 31.64 30 188 0 34 12656 26 132822 23241 3.2 23 7 1 4 24% 2599 86163 13917 49%
c v 31.70 30 188 0 34 12656 26 132822 20359 3.2 23 7 1 4 24% 2607 86163 13917 49%
c w 31.77 30 188 0 34 12656 26 132822 19875 3.2 23 7 1 4 24% 2607 86163 13917 49%
c x 31.83 30 188 0 34 12656 26 132822 19862 3.2 23 7 1 4 24% 2621 84173 13917 49%
c = 32.17 30 188 0 34 12656 26 132822 19862 3.2 23 7 1 4 24% 2705 84173 13875 49%
c d 32.17 30 188 0 34 12656 26 132822 19826 3.2 23 7 1 4 24% 2618 84173 13875 49%
c t 32.18 30 188 0 34 12656 26 132822 19826 3.2 23 7 1 4 24% 2585 84173 13875 49%
c f 32.19 30 188 0 34 12656 26 132822 19826 3.2 23 7 1 4 24% 2588 84141 13878 49%
c c 32.23 30 188 0 34 12656 26 132822 19823 3.2 23 7 1 4 24% 2592 84132 13877 49%
c d 32.23 30 188 0 34 12656 26 132822 19823 3.2 23 7 1 4 24% 2590 84132 13877 49%
c u 32.27 30 188 0 34 12656 26 132822 19246 3.2 23 7 1 4 24% 2602 84132 13877 49%
c
c  seconds   switched      rate          size/glue tier1    binary         remaining
c         MB   reductions    conflicts         size  tier2     irredundant
c           level   restarts        redundant    glue   trail         variables
c
c v 32.31 30 188 0 34 12656 26 132822 18617 3.2 23 7 1 4 24% 2602 84132 13877 49%
c w 32.39 30 188 0 34 12656 26 132822 18027 3.2 23 7 1 4 24% 2602 84132 13877 49%
c t 32.72 30 188 0 34 12656 26 132822 18027 3.2 23 7 1 4 24% 2595 84132 13877 49%
c - 33.21 30 188 0 35 12962 26 135899 18171 3.3 24 7 1 4 25% 2607 84132 13877 49%
c - 33.97 30 187 0 36 13462 25 141817 20523 3.2 24 7 1 4 25% 2653 84130 13877 49%
c - 34.82 30 183 0 37 13984 25 147817 22591 3.3 24 7 1 4 25% 2690 84130 13877 49%
c - 35.61 30 181 0 38 14527 25 153903 24295 3.3 25 8 1 4 26% 2719 84130 13877 49%
c s 36.08 30 180 0 38 14828 25 157869 27965 3.3 25 8 1 4 26% 2738 83550 13877 49%
c e 36.19 30 180 0 38 14828 25 157869 27965 3.3 25 8 1 4 26% 2190 96375 12194 43%
c 2 36.19 30 180 0 38 14828 25 157869 27965 3.3 25 8 1 4 26% 2188 96375 12194 43%
c s 36.21 30 180 0 38 14828 25 157869 27965 3.3 25 8 1 4 26% 2224 93522 12194 43%
c e 36.24 30 180 0 38 14828 25 157869 27965 3.3 25 8 1 4 26% 2106 93864 12144 42%
c ^ 36.24 30 180 0 38 14828 25 157869 27965 3.3 25 8 1 4 26% 2106 93864 12144 42%
c - 36.44 29 179 0 39 14963 24 160067 19366 3.3 25 8 1 4 26% 2142 93863 12144 42%
c o 36.46 29 177 0 39 14964 24 161315 20481 3.3 25 8 1 4 25% 2147 93863 12144 42%
c d 36.88 29 175 0 39 15281 24 164796 23679 3.2 25 8 1 4 25% 2137 93863 12133 42%
c u 36.92 29 175 0 39 15281 24 164796 21562 3.2 25 8 1 4 25% 2166 93863 12133 42%
c v 36.97 29 175 0 39 15281 24 164796 19120 3.2 25 8 1 4 25% 2169 93863 12133 42%
c w 37.12 29 175 0 39 15281 24 164796 19011 3.2 25 8 1 4 25% 2169 93863 12133 42%
c x 37.21 29 175 0 39 15281 24 164796 18999 3.2 25 8 1 4 25% 2214 93479 12133 42%
c
c  seconds   switched      rate          size/glue tier1    binary         remaining
c         MB   reductions    conflicts         size  tier2     irredundant
c           level   restarts        redundant    glue   trail         variables
c
c d 37.21 29 175 0 39 15281 24 164796 18997 3.2 25 8 1 4 25% 2210 93479 12131 42%
c t 37.22 29 175 0 39 15281 24 164796 18997 3.2 25 8 1 4 25% 2106 93479 12131 42%
c f 37.31 29 175 0 39 15281 24 164796 18997 3.2 25 8 1 4 25% 2116 93428 12133 42%
c u 37.35 29 175 0 39 15281 24 164796 18509 3.2 25 8 1 4 25% 2128 93428 12133 42%
c v 37.39 29 175 0 39 15281 24 164796 17961 3.2 25 8 1 4 25% 2130 93428 12133 42%
c w 37.53 29 175 0 39 15281 24 164796 17259 3.2 25 8 1 4 25% 2130 93428 12133 42%
c x 37.59 29 175 0 39 15281 24 164796 17259 3.2 25 8 1 4 25% 2134 93395 12133 42%
c = 38.01 29 175 0 39 15281 24 164796 17259 3.2 25 8 1 4 25% 2136 93395 12132 42%
c d 38.01 29 175 0 39 15281 24 164796 17258 3.2 25 8 1 4 25% 2130 93395 12131 42%
c t 38.02 29 175 0 39 15281 24 164796 17258 3.2 25 8 1 4 25% 2123 93395 12131 42%
c - 38.21 29 175 0 40 15408 24 166311 16067 3.2 25 8 1 4 25% 2133 93393 12131 42%
c - 38.75 30 172 0 41 15800 23 172635 18867 3.2 25 8 1 4 25% 2160 93392 12131 42%
c - 39.44 30 170 0 42 16274 23 179038 21210 3.2 24 8 1 4 26% 2178 93390 12131 42%
c - 40.12 30 166 0 43 16741 23 185518 23044 3.1 24 8 1 4 25% 2208 93386 12131 42%
c - 40.83 31 164 0 44 17163 22 192075 24427 3.1 24 8 1 4 25% 2243 93386 12131 42%
c - 41.55 31 160 0 45 17662 22 198708 25554 3.1 24 8 1 4 25% 2271 93386 12131 42%
c c 41.80 31 160 0 45 17832 22 200576 27252 3.1 24 8 1 4 25% 2318 93230 12107 42%
c d 41.80 31 160 0 45 17832 22 200576 27180 3.1 24 8 1 4 25% 2270 93230 12107 42%
c u 41.86 31 160 0 45 17832 22 200576 25285 3.1 24 8 1 4 25% 2306 93230 12107 42%
c v 41.93 31 160 0 45 17832 22 200576 22158 3.1 24 8 1 4 25% 2322 93230 12107 42%
c
c  seconds   switched      rate          size/glue tier1    binary         remaining
c         MB   reductions    conflicts         size  tier2     irredundant
c           level   restarts        redundant    glue   trail         variables
c
c w 42.05 31 160 0 45 17832 22 200576 21304 3.1 24 8 1 4 25% 2322 93230 12107 42%
c d 42.45 31 160 0 45 17832 22 200576 21288 3.1 24 8 1 4 25% 2310 93230 12101 42%
c t 42.46 31 160 0 45 17832 22 200576 21288 3.1 24 8 1 4 25% 2265 93230 12101 42%
c u 42.52 31 160 0 45 17832 22 200576 20737 3.1 24 8 1 4 25% 2274 93230 12101 42%
c v 42.56 31 160 0 45 17832 22 200576 20033 3.1 24 8 1 4 25% 2275 93230 12101 42%
c w 42.66 31 160 0 45 17832 22 200576 19699 3.1 24 8 1 4 25% 2275 93230 12101 42%
c x 42.74 31 160 0 45 17832 22 200576 19668 3.1 24 8 1 4 25% 2312 92250 12101 42%
c d 42.74 31 160 0 45 17832 22 200576 19667 3.1 24 8 1 4 25% 2310 92250 12100 42%
c t 42.75 31 160 0 45 17832 22 200576 19667 3.1 24 8 1 4 25% 2285 92250 12100 42%
c - 43.43 31 159 0 46 18321 22 205417 20901 3.1 24 8 1 4 26% 2293 92250 12100 42%
c - 44.16 31 157 0 47 18891 22 212200 23610 3.1 24 8 1 4 26% 2324 92250 12100 42%
c - 44.79 31 155 0 48 19319 21 219055 25661 3.0 24 8 1 4 26% 2350 92250 12100 42%
c o 45.08 31 154 0 48 19556 21 221779 28158 3.0 24 8 1 4 26% 2357 92250 12100 42%
c - 45.40 31 151 0 49 19815 21 225983 26991 3.0 24 8 1 4 26% 2373 92250 12100 42%
c - 46.24 31 149 0 50 20454 21 232983 28381 3.0 24 8 1 4 26% 2417 92248 12100 42%
c s 46.84 31 146 0 50 20880 20 239973 34768 3.0 24 8 1 4 26% 2452 92015 12100 42%
c e 46.98 31 146 0 50 20880 20 239973 34768 3.0 24 8 1 4 26% 1846 108807 10872 38%
c s 47.01 31 146 0 50 20880 20 239973 34768 3.0 24 8 1 4 26% 1862 103487 10872 38%
c e 47.05 31 146 0 50 20880 20 239973 34768 3.0 24 8 1 4 26% 1805 103824 10846 38%
c ! 47.05 31 146 0 50 20880 20 239973 34768 3.0 24 8 1 4 26% 1805 103824 10846 38%
c
c  seconds   switched      rate          size/glue tier1    binary          remaining
c         MB   reductions    conflicts         size  tier2     irredundant
c           level   restarts        redundant    glue   trail          variables
c
c - 47.08 31 146 0 51 20887 20 240054 22002 3.0 24 8 1 4 26% 1805 103824 10846 38%
c c 47.13 31 146 0 51 20901 20 240231 22173 3.0 24 8 1 4 26% 1822 103784 10842 38%
c d 47.13 31 146 0 51 20901 20 240231 22164 3.0 24 8 1 4 26% 1814 103784 10842 38%
c u 47.18 31 146 0 51 20901 20 240231 19704 3.0 24 8 1 4 26% 1843 103784 10842 38%
c v 47.23 31 146 0 51 20901 20 240231 16836 3.0 24 8 1 4 26% 1850 103784 10842 38%
c w 47.26 31 146 0 51 20901 20 240231 16332 3.0 24 8 1 4 26% 1850 103784 10842 38%
c x 47.40 31 146 0 51 20901 20 240231 16273 3.0 24 8 1 4 26% 1872 102949 10842 38%
c = 47.86 31 146 0 51 20901 20 240231 16273 3.0 24 8 1 4 26% 1928 102866 10811 38%
c d 47.86 31 146 0 51 20901 20 240231 16267 3.0 24 8 1 4 26% 1870 102866 10811 38%
c t 47.87 31 146 0 51 20901 20 240231 16267 3.0 24 8 1 4 26% 1801 102866 10811 38%
c f 47.96 31 146 0 51 20901 20 240231 16267 3.0 24 8 1 4 26% 1832 102538 10825 38%
c u 48.01 31 146 0 51 20901 20 240231 16025 3.0 24 8 1 4 26% 1835 102538 10825 38%
c v 48.04 31 146 0 51 20901 20 240231 15667 3.0 24 8 1 4 26% 1838 102538 10825 38%
c w 48.06 31 146 0 51 20901 20 240231 15518 3.0 24 8 1 4 26% 1838 102538 10825 38%
c x 48.21 31 146 0 51 20901 20 240231 15490 3.0 24 8 1 4 26% 1849 101689 10825 38%
c = 48.68 31 146 0 51 20901 20 240231 15490 3.0 24 8 1 4 26% 1901 101650 10797 38%
c d 48.69 31 146 0 51 20901 20 240231 15478 3.0 24 8 1 4 26% 1845 101650 10797 38%
c t 48.69 31 146 0 51 20901 20 240231 15478 3.0 24 8 1 4 26% 1815 101650 10797 38%
c f 48.71 31 146 0 51 20901 20 240231 15478 3.0 24 8 1 4 26% 1816 101632 10798 38%
c - 49.46 31 147 0 52 21409 20 247195 18977 2.9 24 8 1 4 26% 1822 101630 10798 38%
c
c  seconds   switched      rate          size/glue tier1    binary          remaining
c         MB   reductions    conflicts         size  tier2     irredundant
c           level   restarts        redundant    glue   trail          variables
c
c - 49.99 31 144 0 53 21799 20 254406 22212 2.9 24 8 1 4 26% 1847 101625 10798 38%
c - 50.64 31 142 0 54 22231 19 261686 24070 2.9 23 8 1 4 26% 1860 101623 10798 38%
c - 51.24 31 140 0 55 22626 19 269035 25328 2.8 23 8 1 5 26% 1885 101623 10798 38%
c - 51.92 31 138 0 56 23099 18 276452 26423 2.8 23 8 1 5 26% 1905 101623 10798 38%
c d 52.39 31 134 0 56 23463 18 283858 33197 2.7 22 8 1 5 26% 1922 101619 10797 38%
c u 52.45 31 134 0 56 23463 18 283858 31583 2.7 22 8 1 5 26% 1949 101619 10797 38%
c v 52.53 31 134 0 56 23463 18 283858 28574 2.7 22 8 1 5 26% 1951 101619 10797 38%
c w 52.57 31 134 0 56 23463 18 283858 28537 2.7 22 8 1 5 26% 1951 101619 10797 38%
c x 52.67 31 134 0 56 23463 18 283858 28496 2.7 22 8 1 5 26% 1994 100577 10797 38%
c = 53.12 31 134 0 56 23463 18 283858 28496 2.7 22 8 1 5 26% 2044 100471 10765 38%
c d 53.13 31 134 0 56 23463 18 283858 28358 2.7 22 8 1 5 26% 1994 100471 10765 38%
c t 53.13 31 134 0 56 23463 18 283858 28358 2.7 22 8 1 5 26% 1952 100471 10765 38%
c f 53.16 31 134 0 56 23463 18 283858 28358 2.7 22 8 1 5 26% 1956 100450 10766 38%
c u 53.23 31 134 0 56 23463 18 283858 28012 2.7 22 8 1 5 26% 1984 100450 10763 38%
c v 53.32 31 134 0 56 23463 18 283858 25120 2.7 22 8 1 5 26% 1998 100450 10761 38%
c w 53.38 31 134 0 56 23463 18 283858 25032 2.7 22 8 1 5 26% 1998 100450 10761 38%
c x 53.44 31 134 0 56 23463 18 283858 25027 2.7 22 8 1 5 26% 2011 100401 10761 38%
c = 53.89 31 134 0 56 23463 18 283858 25027 2.7 22 8 1 5 26% 2014 100398 10758 38%
c d 53.89 31 134 0 56 23463 18 283858 25015 2.7 22 8 1 5 26% 1997 100398 10755 38%
c t 53.90 31 134 0 56 23463 18 283858 25015 2.7 22 8 1 5 26% 1980 100398 10755 38%
c
c  seconds   switched      rate          size/glue tier1    binary          remaining
c         MB   reductions    conflicts         size  tier2     irredundant
c           level   restarts        redundant    glue   trail          variables
c
c i 53.91 31 134 0 56 23463 18 283858 25015 2.7 22 8 1 5 26% 1980 100398 10755 38%
c - 53.93 31 134 0 57 23469 18 283936 20605 2.7 22 8 1 5 26% 1955 100398 10755 38%
c i 53.94 31 134 0 57 23476 18 284514 21092 2.7 22 8 1 5 26% 1968 100398 10754 38%
c i 53.96 31 133 0 57 23496 18 285628 21999 2.7 22 8 1 5 25% 2003 100398 10753 38%
c i 53.96 31 133 0 57 23496 18 285629 21996 2.7 22 8 1 5 25% 2003 100398 10752 38%
c i 53.96 31 133 0 57 23499 18 285795 22132 2.7 22 8 1 5 25% 2013 100398 10751 38%
c i 53.96 31 132 0 57 23500 18 286463 22626 2.7 22 8 1 5 25% 2033 100397 10599 37%
c i 53.96 31 132 0 57 23500 18 286464 22626 2.7 22 8 1 5 25% 2033 100397 10597 37%
c } 53.96 31 132 0 57 23500 18 286468 22626 2.7 22 8 1 5 25% 2034 100396 10529 37%
c 0 53.96 31 132 0 57 23500 18 286468 22626 2.7 22 8 1 5 25% 2034 100396 10529 37%
c
c ---- [ result ] ------------------------------------------------------------
c
s UNSATISFIABLE
c
c ---- [ profiling ] ---------------------------------------------------------
c
c          38.33   71.03 %  search
c          38.33   71.03 %  focused
c          15.03   27.86 %  simplify
c          14.36   26.60 %  probe
c           6.65   12.32 %  sweep
c           5.10    9.45 %  vivify
c           0.99    1.84 %  factor
c           0.97    1.79 %  eliminate
c           0.73    1.35 %  congruence
c           0.69    1.28 %  substitute
c           0.53    0.99 %  preprocess
c           0.28    0.52 %  reduce
c           0.24    0.44 %  fastel
c           0.15    0.28 %  subsume
c           0.12    0.21 %  transitive
c           0.08    0.15 %  backbone
c           0.04    0.08 %  lucky
c           0.02    0.04 %  parse
c =============================================
c          53.96  100.00 %  total
c
c ---- [ statistics ] --------------------------------------------------------
c
c chronological:                        10819                4 %  conflicts
c conflicts:                           286468             5308.42 per second
c congruent:                              310                1 %  variables
c decisions:                          6077245               21.21 per conflict
c eliminated:                           14509               51 %  variables
c factored:                              3479               12 %  variables
c fast_eliminated:                       9464               65 %  eliminated
c fast_strengthened:                       55                1 %  per strengthened
c fast_subsumed:                          105                0 %  per subsumed
c iterations:                               7                0 %  variables
c propagations:                     220873928          4092922    per second
c reductions:                              57             5026    interval
c reordered:                                7            40924    interval
c restarts:                             23500               12    interval
c strengthened:                          9951                0 %  checks
c substituted:                           6794               24 %  variables
c subsumed:                             44848                1 %  checks
c switched:                                 0                0    interval
c vivified:                             97593               12 %  checks
c
c ---- [ glue usage ] --------------------------------------------------------
c
c focused glue 1 used 570012 clauses 62.11% accumulated 62.11% tier1
c focused glue 2 used 164608 clauses 17.94% accumulated 80.05%
c focused glue 3 used  57366 clauses  6.25% accumulated 86.30%
c focused glue 4 used  30461 clauses  3.32% accumulated 89.62%
c focused glue 5 used  19825 clauses  2.16% accumulated 91.78% tier2
c
c ---- [ resources ] ---------------------------------------------------------
c
c maximum-resident-set-size:         32587776 bytes         31 MB
c process-time:                            54s              53.96 seconds
c
c ---- [ shutting down ] -----------------------------------------------------
c
c exit 20
